# Solution for model GasLib-40
# Objective value = 1.0891127394529915e+01
loadshed[innode_1] 0
loadshed[innode_2] 0
loadshed[innode_3] 0
loadshed[innode_4] 0
loadshed[innode_5] 0
loadshed[innode_6] 0
loadshed[innode_7] 0
loadshed[innode_8] 0
loadshed[source_1] -3.0803619206593291e-01
loadshed[source_2] 4.8272439385449450e-02
loadshed[source_3] 3.2865557542622503e-01
loadshed[sink_1] 0
loadshed[sink_2] 0
loadshed[sink_3] 0
loadshed[sink_4] 0
loadshed[sink_5] 0
loadshed[sink_6] 0
loadshed[sink_7] 0
loadshed[sink_8] 0
loadshed[sink_9] 0
loadshed[sink_10] 0
loadshed[sink_11] 0
loadshed[sink_12] 6.6595428654450428e-01
loadshed[sink_13] 0
loadshed[sink_14] 0
loadshed[sink_15] 0
loadshed[sink_16] 0
loadshed[sink_17] 0
loadshed[sink_18] 0
loadshed[sink_19] 0
loadshed[sink_20] 0
loadshed[sink_21] 0
loadshed[sink_22] 0
loadshed[sink_23] 0
loadshed[sink_24] 0
loadshed[sink_25] 0
loadshed[sink_26] 0
loadshed[sink_27] 0
loadshed[sink_28] 0
loadshed[sink_29] 0
flow[source_1,sink_3] 2.0678780494709002e+02
flow[innode_1,sink_16] 1.6354166666666970e+01
flow[innode_6,sink_13] 8.3461401012497465e+00
flow[sink_13,sink_14] -8.0080265654169214e+00
flow[sink_14,sink_10] -2.4362193232083882e+01
flow[sink_25,sink_26] 1.7610741916035823e+02
flow[sink_26,sink_9] 1.2375358301121628e+02
flow[sink_9,sink_18] 1.0739941634454961e+02
flow[sink_26,sink_4] 3.5999669482475291e+01
flow[sink_4,sink_20] -4.1959786778447096e+01
flow[sink_18,sink_6] 9.1045249677882936e+01
flow[sink_25,innode_8] -1.7407947161375367e+02
flow[sink_6,sink_7] 4.1982749677882111e+01
flow[sink_6,sink_22] 3.2708333333333641e+01
flow[sink_7,sink_24] 3.8171372605470090e+01
flow[sink_22,sink_1] 1.6354166666666970e+01
flow[sink_24,sink_21] 2.1817205938803422e+01
flow[sink_21,sink_12] 5.4630392721367542e+00
flow[sink_7,sink_5] -1.2542789594253833e+01
flow[sink_5,sink_17] -2.8896956260920774e+01
flow[sink_17,sink_4] -6.1605289594255737e+01
flow[sink_17,sink_8] 1.6354166666668334e+01
flow[sink_3,sink_23] 16.3541666666697
flow[sink_8,sink_20] 0
flow[sink_25,sink_20] 5.8313953445113839e+01
flow[sink_25,sink_15] -8.5042207759636156e+01
flow[sink_15,sink_29] -1.0139637442630283e+02
flow[sink_29,sink_28] 1.6354166666667879e+01
flow[sink_29,sink_2] 1.6354166666684250e+01
flow[sink_2,sink_15] 0
flow[sink_29,innode_7] -1.5045887442632113e+02
flow[innode_4,sink_19] 1.0613302656543047e+02
flow[sink_19,innode_3] 35.8309403717954
flow[innode_4,innode_5] 0
flow[sink_27,innode_5] 0
flow[sink_27,sink_19] -1.6354166666679703e+01
flow[sink_10,sink_11] 3.2708333333333641e+01
flow[sink_10,innode_2] -3.7593752860288696e+01
flow[sink_10,innode_3] -35.8309403717954
flow[innode_6,sink_25] -8.3461401012497465e+00
flow[sink_11,innode_1] 1.6354166666666970e+01
flow[sink_19,innode_2] 3.7593752860288696e+01
flow[source_3,innode_4] 1.0613302656543047e+02
flow[source_2,innode_7] 1.5045887442632113e+02
flow[sink_3,innode_8] 1.7407947161375367e+02
pressure[innode_1] 7.4574844251787113e+01
pressure[innode_2] 7.6713530665341423e+01
pressure[innode_3] 7.6634187105301919e+01
pressure[innode_4] 81.01325
pressure[innode_5] 81.01325
pressure[innode_6] 7.3605927857526027e+01
pressure[innode_7] 81.01325
pressure[innode_8] 8.0322037363866642e+01
pressure[source_1] 81.01325
pressure[source_2] 81.01325
pressure[source_3] 81.01325
pressure[sink_1] 4.5377526563009404e+01
pressure[sink_2] 7.6574795032595631e+01
pressure[sink_3] 8.0322037363866642e+01
pressure[sink_4] 5.6625694598908062e+01
pressure[sink_5] 5.2118729199539359e+01
pressure[sink_6] 4.7478604173396775e+01
pressure[sink_7] 4.6902281092048696e+01
pressure[sink_8] 5.3654258372365177e+01
pressure[sink_9] 5.3795814405787084e+01
pressure[sink_10] 7.4726545559390658e+01
pressure[sink_11] 7.4574844251787113e+01
pressure[sink_12] 1.0132500000000002e+00
pressure[sink_13] 7.3559916981917411e+01
pressure[sink_14] 7.3574248027589263e+01
pressure[sink_15] 7.4018465432144353e+01
pressure[sink_16] 7.3553194416969433e+01
pressure[sink_17] 54.2713435677788
pressure[sink_18] 4.9909783417128629e+01
pressure[sink_19] 7.6713530665341423e+01
pressure[sink_20] 59.7040596593353
pressure[sink_21] 2.9572983663302650e+00
pressure[sink_22] 4.6441295705364411e+01
pressure[sink_23] 8.0157319352206855e+01
pressure[sink_24] 3.1989036515006766e+00
pressure[sink_25] 7.3605927857526027e+01
pressure[sink_26] 6.1202785748213920e+01
pressure[sink_27] 7.6362400668197921e+01
pressure[sink_28] 7.6693782257442109e+01
pressure[sink_29] 7.6989064531059284e+01
interdiction[source_1,sink_3] 0
interdiction[innode_1,sink_16] 0
interdiction[innode_6,sink_13] 0
interdiction[sink_13,sink_14] 0
interdiction[sink_14,sink_10] 0
interdiction[sink_25,sink_26] 0
interdiction[sink_26,sink_9] 0
interdiction[sink_9,sink_18] 0
interdiction[sink_26,sink_4] 0
interdiction[sink_4,sink_20] 0
interdiction[sink_18,sink_6] 0
interdiction[sink_25,innode_8] 0
interdiction[sink_6,sink_7] 0
interdiction[sink_6,sink_22] 0
interdiction[sink_7,sink_24] 0
interdiction[sink_22,sink_1] 0
interdiction[sink_24,sink_21] 0
interdiction[sink_21,sink_12] 0
interdiction[sink_7,sink_5] 0
interdiction[sink_5,sink_17] 0
interdiction[sink_17,sink_4] 0
interdiction[sink_17,sink_8] 0
interdiction[sink_3,sink_23] 0
interdiction[sink_8,sink_20] 1
interdiction[sink_25,sink_20] 0
interdiction[sink_25,sink_15] 0
interdiction[sink_15,sink_29] 0
interdiction[sink_29,sink_28] 0
interdiction[sink_29,sink_2] 0
interdiction[sink_2,sink_15] 1
interdiction[sink_29,innode_7] 0
interdiction[innode_4,sink_19] 0
interdiction[sink_19,innode_3] 0
interdiction[innode_4,innode_5] 0
interdiction[sink_27,innode_5] 1
interdiction[sink_27,sink_19] 0
interdiction[sink_10,sink_11] 0
interdiction[sink_10,innode_2] 0
interdiction[sink_10,innode_3] 0
interdiction[innode_6,sink_25] 0
interdiction[sink_11,innode_1] 0
interdiction[sink_19,innode_2] 0
interdiction[source_3,innode_4] 0
interdiction[source_2,innode_7] 0
interdiction[sink_3,innode_8] 0
WCcheckFlow[source_1,sink_3] 39
WCcheckFlow[innode_1,sink_16] 1
WCcheckFlow[innode_6,sink_13] 13
WCcheckFlow[sink_13,sink_14] 12
WCcheckFlow[sink_14,sink_10] 11
WCcheckFlow[sink_25,sink_26] 15
WCcheckFlow[sink_26,sink_9] 12
WCcheckFlow[sink_9,sink_18] 11
WCcheckFlow[sink_26,sink_4] 2
WCcheckFlow[sink_4,sink_20] 1
WCcheckFlow[sink_18,sink_6] 10
WCcheckFlow[sink_25,innode_8] -36
WCcheckFlow[sink_6,sink_7] 7
WCcheckFlow[sink_6,sink_22] 2
WCcheckFlow[sink_7,sink_24] 3
WCcheckFlow[sink_22,sink_1] 1
WCcheckFlow[sink_24,sink_21] 2
WCcheckFlow[sink_21,sink_12] 1
WCcheckFlow[sink_7,sink_5] 3
WCcheckFlow[sink_5,sink_17] 2
WCcheckFlow[sink_17,sink_4] 0
WCcheckFlow[sink_17,sink_8] 1
WCcheckFlow[sink_3,sink_23] 1
WCcheckFlow[sink_8,sink_20] 0
WCcheckFlow[sink_25,sink_20] 0
WCcheckFlow[sink_25,sink_15] 6
WCcheckFlow[sink_15,sink_29] 5
WCcheckFlow[sink_29,sink_28] 1
WCcheckFlow[sink_29,sink_2] 1
WCcheckFlow[sink_2,sink_15] 0
WCcheckFlow[sink_29,innode_7] 2
WCcheckFlow[innode_4,sink_19] -3
WCcheckFlow[sink_19,innode_3] -5
WCcheckFlow[innode_4,innode_5] 1
WCcheckFlow[sink_27,innode_5] 0
WCcheckFlow[sink_27,sink_19] -1
WCcheckFlow[sink_10,sink_11] 3
WCcheckFlow[sink_10,innode_2] 1
WCcheckFlow[sink_10,innode_3] 6
WCcheckFlow[innode_6,sink_25] -14
WCcheckFlow[sink_11,innode_1] 2
WCcheckFlow[sink_19,innode_2] 0
WCcheckFlow[source_3,innode_4] -1
WCcheckFlow[source_2,innode_7] -1
WCcheckFlow[sink_3,innode_8] 37
